Merkle_Hellman_Knapsack/encrypted.txt
627 2538 1956 3420 2626 1291 664 1956 3420 2626 1956 664 2838 3365 664 2626 1956 3420 2626 664 1961 1956 3365 2626 3208 2838 664 1666 1956 3208 2912 2118 1956 1915 789 1956 2118 2118 2330 1291 3365 2950 1251 1621